p cnf 7230 16
-2474 -3092 -3095 0
-3093 3095 0
-2428 -2574 -3098 0
2428 -3099 0
3098 3099 0
3096 3097 0
2426 -3097 0
-2426 -3096 0
3092 3093 0
2574 -3099 0
2474 -3093 0
3094 3095 0
2424 -3095 0
-2424 -3094 0
3090 3091 0
-3090 -3091 0
